(set-logic QF_S)
(declare-fun I () String)
(declare-fun H () String)
(declare-fun G () String)
(declare-fun E () String)
(declare-fun D () String)
(assert (= (str.++  G D "a" G D "b" I)  (str.++  "a" G E H H "baa") ))
(check-sat)
(get-model)
